100 154292
78 27 97 55 11 13 1 71 18 91 65 39 5 63 60 95 25 83 79 37 58 24 93 75 4 31 32 74 54 88 80 42 89 56 81 22 43 14 77 6 10 9 96 68 16 84 19 57 34 15 30 62 85 98 52 67 94 46 33 28 73 40 26 86 61 99 49 64 2 87 12 66 47 59 100 69 70 36 21 20 44 23 90 8 38 92 51 72 50 41 29 3 35 82 45 48 7 76 53 17 
